185734
74,5,60,29,1,42,59,48,33,11,56,2,41,78,27,7,52,82,38,49,64,4,31,19,20,30,18,47,17,23,36,12,9,63,44,28,79,61,25,65,66,75,13,69,35,72,0,53,45,70,21,51,40,62,3,58,67,32,39,73,16,71,15,34,22,68,77,14,24,54,80,50,46,55,8,76,57,81,43,26,10,6,37
